p cnf 29 80
a 2 14 0
e 1 3 4 5 6 7 8 9 10 11 12 13 15 16 17 18 19 20 21 22 23 24 25 26 27 28 29 0
-1 2 -3 0
1 -2 -3 0
-1 -2 3 0
1 2 3 0
-5 -3 0
-5 -4 0
3 4 5 0
6 4 -7 0
-6 -4 -7 0
6 -4 7 0
-6 4 7 0
9 8 0
9 -6 0
-8 6 -9 0
-11 -9 0
-11 10 0
9 -10 11 0
-11 -1 -12 0
11 1 -12 0
-11 1 12 0
11 -1 12 0
-7 -12 -13 0
7 12 -13 0
-7 12 13 0
7 -12 13 0
-9 3 -14 0
9 -3 -14 0
-9 -3 14 0
9 3 14 0
16 -15 0
16 3 0
15 -3 -16 0
2 -16 -17 0
-2 16 -17 0
2 16 17 0
-2 -16 17 0
18 14 0
18 17 0
-14 -17 -18 0
19 4 0
19 -9 0
-4 9 -19 0
-18 -19 -20 0
18 19 -20 0
-18 19 20 0
18 -19 20 0
-21 -10 0
-21 -6 0
10 6 21 0
-10 -22 -23 0
10 22 -23 0
-10 22 23 0
10 -22 23 0
21 -23 -24 0
-21 23 -24 0
21 23 24 0
-21 -23 24 0
-25 16 0
-25 -9 0
-16 9 25 0
26 24 0
26 -25 0
-24 25 -26 0
27 20 0
27 -26 0
-20 26 -27 0
28 -13 0
28 27 0
13 -27 -28 0
-29 -5 0
-29 28 0
5 -28 29 0
-28 -15 -19 25 -10 5 8 0
-4 15 -22 21 -2 29 -12 0
-1 16 -11 -10 -24 0
-2 4 -5 11 -24 0
-22 -27 11 25 -6 -7 0
18 -8 26 -24 0
-18 -21 7 0
29 0
